
;this file is automatically generated: Mon Feb 10 17:01:40 CST 2020

;declarations generated

(declare-fun oclExcludes ( Int Int) Bool)
(declare-fun Cardinality ( Int) Int)
(declare-fun obj_24e338d0_ff6f_4f41_af57_ac7eb0dd19c8 ( Int) Int)
(declare-fun oclSelect ( Int Bool) Int)
(declare-fun class38_Class38BoolAttr1 ( Int) Bool)
(declare-fun class38_Class38BoolAttr0 ( Int) Bool)
(declare-fun type_f93ae5aa_bf3f_403c_b450_428c7411e5ed_Class38 ( Int) Bool)
(declare-fun class38_Class38IntAttr4 ( Int) Int)
(declare-fun class38_Class38IntAttr3 ( Int) Int)
(declare-fun class38_Class38IntAttr2 ( Int) Int)
(declare-fun Enum0 ( Int) Int)
(declare-fun Enum1 ( Int) Int)
(declare-fun Enum2 ( Int) Int)
(declare-fun container_ ( Int) Int)
(declare-fun oclIncludes ( Int Int) Bool)
(declare-fun ObjAt ( Int Int) Int)

;formula(s) generated
(assert (! (forall ((c1 Int)) (=> ( type_f93ae5aa_bf3f_403c_b450_428c7411e5ed_Class38 c1 )  (> ( class38_Class38IntAttr3 ( obj_24e338d0_ff6f_4f41_af57_ac7eb0dd19c8 c1 )  )  15))):named l0))
(assert (! (or (forall ((v Int)) (=> ( type_f93ae5aa_bf3f_403c_b450_428c7411e5ed_Class38 v )  (or (> ( class38_Class38IntAttr2 ( obj_24e338d0_ff6f_4f41_af57_ac7eb0dd19c8 v )  )  4) (and (forall ((v Int)) (=> ( type_f93ae5aa_bf3f_403c_b450_428c7411e5ed_Class38 v )  ( class38_Class38BoolAttr1 ( obj_24e338d0_ff6f_4f41_af57_ac7eb0dd19c8 v )  ) )) (forall ((v Int)) (=> ( type_f93ae5aa_bf3f_403c_b450_428c7411e5ed_Class38 v )  ( class38_Class38BoolAttr0 ( obj_24e338d0_ff6f_4f41_af57_ac7eb0dd19c8 v )  ) )))))) (forall ((c8_2 Int)(c8_1 Int)) (=> (and ( type_f93ae5aa_bf3f_403c_b450_428c7411e5ed_Class38 c8_1 )  ( type_f93ae5aa_bf3f_403c_b450_428c7411e5ed_Class38 c8_2 ) ) (>= ( class38_Class38IntAttr4 ( obj_24e338d0_ff6f_4f41_af57_ac7eb0dd19c8 c8_1 )  )  ( class38_Class38IntAttr3 ( obj_24e338d0_ff6f_4f41_af57_ac7eb0dd19c8 c8_2 )  ) )))):named l1))
(assert (! (forall ((v Int)) (=> ( type_f93ae5aa_bf3f_403c_b450_428c7411e5ed_Class38 v )  (not (= ( class38_Class38IntAttr2 ( obj_24e338d0_ff6f_4f41_af57_ac7eb0dd19c8 v )  )  13) ))):named l2))
(assert (exists ((o Int)) ( type_f93ae5aa_bf3f_403c_b450_428c7411e5ed_Class38 ( obj_24e338d0_ff6f_4f41_af57_ac7eb0dd19c8 o )  ) ))

 ;end of formula 